nNurses = 176;
nHours = 37;
minHours = 3;
maxHours = 14;
maxConsec = 13;
maxPresence = 11;
demand = [12, 15, 15, 20, 15, 16, 11, 6, 7, 5, 10, 10, 13, 12, 10, 10, 9, 5, 7, 11, 14, 18, 22, 24, 29, 30, 34, 34, 36, 35, 37, 41, 45, 41, 45, 45, 40];
